
  22    4
  10   10   10   10

   0   0   0   0   0   6 2 3 4 5 7 8 
  10  10  10  10  10   5 14 12 10 9 6 
   2  10  10  10  10   4 21 14 11 9 
   9  10  10  10  10   3 14 11 10 
   7  10  10  10  10   1 6 
   5  10  10  10  10   4 21 20 19 11 
   2  10  10  10  10   4 20 19 14 11 
   8  10  10  10  10   3 19 12 11 
  10  10  10  10  10   6 20 19 18 17 16 15 
   8  10  10  10  10   5 20 19 18 16 15 
   1  10  10  10  10   2 18 13 
   1  10  10  10  10   1 13 
   4  10  10  10  10   3 17 16 15 
   5  10  10  10  10   1 15 
   5  10  10  10  10   1 22
   6  10  10  10  10   1 22
  10  10  10  10  10   1 22
   3  10  10  10  10   1 22
  10  10  10  10  10   1 22
  10  10  10  10  10   1 22
   6  10  10  10  10   1 22
   0   0   0   0   0   0 
